(synth-fun condition ((tlen Int) (LOWFAT_GLOBAL_MS__buf_xmlBufGrowInternal_486 Int) (xmlStrncmpctxtinputcurctxtnametlen Int)) Bool ((Start Int (0 1 2 -1 tlen LOWFAT_GLOBAL_MS__buf_xmlBufGrowInternal_486 xmlStrncmpctxtinputcurctxtnametlen)) (StartBool Bool (true false (< Start Start) (<= Start Start) (and StartBool StartBool) (or StartBool StartBool) (not StartBool) (= Start Start) (= StartBool StartBool)))))
(declare-var tlen Int)
(declare-var LOWFAT_GLOBAL_MS__buf_xmlBufGrowInternal_486 Int)
(declare-var xmlStrncmpctxtinputcurctxtnametlen Int)
(constraint (=> (condition tlen LOWFAT_GLOBAL_MS__buf_xmlBufGrowInternal_486 xmlStrncmpctxtinputcurctxtnametlen) (and (or (not (= 1 tlen)) (< tlen LOWFAT_GLOBAL_MS__buf_xmlBufGrowInternal_486)) (or (not (and (< 0 tlen) (= False (= 1 tlen)))) (< tlen LOWFAT_GLOBAL_MS__buf_xmlBufGrowInternal_486)))))
(sketch condition (and (< 0 tlen) (= xmlStrncmpctxtinputcurctxtnametlen 0)))